// Cell size
c := 25e-9
cz := 25e-9

SetGridsize(128,256,4)
SetCellsize(c,c,cz)

// Permalloy parameters
Msat  = 800e3
Aex   = 13e-12
alpha = 0.1
EdgeSmooth = 8

// magnet definitions
system := universe().sub(universe())

height := 2250e-9
gap := 260e-9
rect1 := cuboid(1000e-9, 2250e-9, 250e-9)
rect2 := cuboid(360e-9, 890e-9, 250e-9)
top := rect1.transl(0,(height+gap)/2,0)
bottom := rect1.transl(0,-(height+gap)/2,0)
left := rect2.transl(-(1000e-9+360e-9)/2,0,0)
system = system.add(top).add(bottom).add(left)

setgeom(system)
snapshot(geom)
saveas(geom,"yoneda.ovf")

m = randomMag() // uniform field in (x,y,z)
relax()    // slower but robust for large changes
save(m)    // relaxed state

autosave(m, 200e-12) // saves space-dependent quantity m every 200e-12s
tableautosave(10e-12) // save data table every 10e-12s

B_ext = vector(1, 0, 0) // Overwrite external magnetic
run(5e-9) // run sim for 1e-9s
saveas(B_demag, "strayfield")